n = 18;
lu = [|121, 263
      |173, 263
      |-156, 88
      |242, 263
      |-215, 47
      |-57, 321
      |-257, -117
      |-33, 292
      |-189, -119
      |-107, 265
      |-47, 83
      |-5, 198
      |-272, 48
      |-302, -263
      |-201, 126
      |-141, 123
      |-248, -218
      |-309, 134|];
